p cnf 404 381
-3 -6 -8 -9 -12 -13 -18 -19 -21 -23 -28 -30 -31 0
-46 -47 -49 -50 -52 -55 -57 -62 -63 -65 -73 -74 -76 -77 0
-8 -9 -10 -11 -12 -13 -23 -24 -27 -28 -38 -39 0
-13 -17 -20 -21 -23 -24 -27 -28 -30 -31 -38 -39 0
-1 0
-7 -10 -18 -19 -21 -22 -23 -28 -29 -32 -34 -38 -39 0
-10 -11 -13 -18 -19 -23 -28 -29 -32 -34 -38 -39 0
-13 -18 -19 -23 -28 -29 -30 -31 -32 -34 -38 -39 0
-13 -21 -23 -24 -27 -28 -29 -30 -31 -32 -38 -39 -42 -43 0
-46 -49 -54 -55 -57 -67 -72 -73 -76 -78 -82 -85 0
-10 -11 -18 -19 -45 0
-30 -33 -45 0
-46 -49 -52 -54 -55 -57 -62 -63 -67 -72 -73 -76 -82 -83 -86 0
-46 -49 -54 -55 -57 -62 -63 -67 -72 -73 -76 -78 -82 -83 0
-90 -91 -93 -94 -96 -99 -106 -107 -109 -110 -118 -120 -121 0
-90 -93 -96 -98 -99 -106 -107 -109 -110 -111 -116 -117 -120 -126 -127 0
-90 -93 -96 -98 -99 -106 -107 -109 -110 -111 -116 -117 -120 -126 -129 0
-46 -49 -89 -90 -91 -93 0
-46 -49 -89 -90 -91 -97 -100 -109 0
-46 -49 -89 -90 -91 -101 -105 -106 -107 -108 -110 -118 -121 0
-46 -49 -89 -91 -101 -106 -107 -109 -110 -128 -129 0
-89 -90 -91 -138 -140 -141 -143 -144 -153 -154 0
-89 -135 -138 -139 -140 -141 -143 -144 -145 -150 -151 -153 0
-89 -90 -137 -140 -141 -142 -143 -144 -145 -150 -151 -156 -159 -170 -171 0
-89 -90 -137 -140 -142 -143 -149 -150 -151 -152 -154 -155 -160 -170 -173 0
-89 -90 -137 -140 -141 -142 -143 -144 -145 -150 -151 -170 -173 0
-89 -90 -91 -137 -138 -140 -141 -142 -143 -144 -145 0
-89 -90 -91 -137 -138 -140 -141 -143 -144 -154 -162 -163 0
-89 -90 -91 -138 -140 -141 -143 -145 -149 -150 -151 -152 -154 -162 -165 -174 -175 0
-29 -32 -46 -49 -61 -64 -89 -90 -91 -137 -138 -141 -145 -183 -184 -185 0
-29 -32 -46 -49 -61 -64 -89 -90 -91 -137 -138 -139 -140 -141 0
-29 -32 -46 -49 -73 -76 -89 -90 -91 -137 -138 -139 -140 -141 0
-29 -32 -73 -76 -89 -90 -91 -105 -108 -138 -139 -140 -141 -145 -149 -150 -151 -152 -154 -162 -165 0
-89 -90 -91 -139 -140 -141 -142 -143 -144 -149 -152 -170 -172 -173 0
-89 -90 -91 -101 -106 -107 -110 -140 -141 -142 -143 -144 -149 -152 -154 -170 -173 0
-89 -90 -91 -101 -106 -107 -110 -138 -140 -141 -142 -143 -144 -149 -152 -154 0
-89 -90 -91 -101 -106 -107 -110 -138 -140 -141 -142 -143 -144 -145 0
-29 -32 -49 -73 -76 -89 -90 -91 -101 -106 -107 -110 -138 -139 -140 -141 -143 -144 0
-89 -90 -91 -140 -141 -143 -144 -162 -163 -170 -172 -173 0
-89 -90 -91 -101 -106 -107 -110 -138 -140 -141 -143 -144 -154 -162 -163 0
-29 -32 -46 -49 -73 -76 -89 -90 -91 -101 -106 -107 -110 -138 -141 -144 -145 -183 -184 -185 0
-89 -90 -91 -101 -106 -107 -110 -140 -141 -143 -144 -145 -183 -184 -187 -188 -190 -198 -206 -207 0
-57 -89 -90 -91 -101 -106 -107 -110 -140 -141 -143 -144 -145 -183 -184 -187 -188 -190 -198 -199 -204 0
-89 -90 -91 -101 -105 -106 -107 -108 -110 -140 -141 -144 -145 -183 -184 -187 -188 -190 -198 -206 -209 0
-30 -33 -54 -55 -62 -63 -89 0
-223 -226 -228 -229 -231 -232 -237 -238 -239 -240 -241 -249 -250 -252 -253 -254 0
-90 -91 -97 -100 -105 -108 -109 -110 -118 -121 -126 -129 0
-97 -98 -99 -100 -101 -105 -106 -107 -108 -109 -110 -111 -116 -126 -129 0
-90 -91 -94 -96 -99 -103 -108 -110 -118 -119 -122 -126 -128 -129 0
-96 -99 -101 -106 -107 -110 -118 -119 -120 -121 -126 -128 -129 0
-90 -91 -94 -96 -99 -101 -103 -106 -107 -108 -110 -118 -119 -126 -128 -129 0
-101 -103 -105 -106 -107 -108 -109 -110 -111 -116 -126 -128 -129 0
-90 -91 -94 -96 -99 -101 -105 -106 -107 -108 -109 -110 -118 -120 -121 0
-98 -99 -101 -105 -106 -107 -108 -109 -110 -111 -116 -126 -128 -129 0
-90 -91 -98 -99 -101 -105 -106 -107 -108 -109 -110 -111 -116 -126 -129 -139 -144 -146 -150 -151 -153 -156 -159 -162 -164 -165 -172 -174 -175 0
-90 -91 -98 -99 -105 -108 -109 -110 -111 -116 -126 -129 -149 -150 -151 -152 -153 -156 -159 -162 -165 -170 -172 -173 0
-91 -98 -99 -101 -105 -106 -107 -108 -109 -110 -111 -116 -139 -142 -145 -149 -150 -151 -152 -153 -154 -155 -160 -170 -173 0
-91 -98 -99 -101 -105 -106 -107 -108 -109 -110 -111 -116 -139 -141 -142 -145 -149 -150 -151 -152 -153 -154 -155 -156 -159 -160 -170 -171 0
-90 -91 -97 -101 -105 -106 -107 -108 -109 -110 -117 -118 -119 -120 -126 -127 -149 -150 -151 -152 -153 -154 -156 -159 -162 -165 -175 0
-46 -47 -49 -50 -52 -54 -55 -57 -62 -63 -67 -72 -73 -76 -97 -98 -101 -106 -107 -109 -111 -116 -117 -120 -122 0
-46 -47 -49 -50 -52 -54 -55 -57 -67 -72 -73 -76 -91 -97 -98 -101 -106 -107 -109 -110 -111 -116 -117 -120 0
-46 -47 -49 -50 -52 -53 -54 -55 -56 -57 -67 -72 -90 -91 -97 -109 -111 -116 -137 0
-10 -11 -21 -22 -46 -47 -49 -50 -53 -54 -55 -57 -62 -63 -90 -91 -97 -98 -106 -107 -109 -110 -154 -162 -165 -173 0
-10 -11 -47 -50 -54 -55 -62 -63 -96 -97 -100 -103 -106 -107 -109 -110 -117 -122 0
-10 -11 -54 -55 -62 -63 -90 -91 -94 -96 -97 -100 -103 -105 -106 -107 -108 -109 -110 0
-10 -11 -54 -55 -90 -91 -94 -96 -97 -100 -105 -106 -107 -108 -109 -110 -118 -119 0
-30 -33 -47 -50 -51 -52 -54 -62 -63 -97 -98 -105 -106 -107 -108 -109 -110 -111 -116 0
-95 -98 -100 -106 -107 -109 -110 -111 -116 -117 -120 -122 -126 -128 -129 0
-90 -91 -95 -97 -98 -100 -105 -108 -109 -110 -111 -116 -126 -129 0
-52 -54 -55 -57 -61 -64 -67 -72 -90 -91 -94 -96 -97 -98 -99 -100 -109 -110 -111 -116 0
-52 -54 -55 -57 -67 -72 -73 -76 -90 -91 -94 -96 -97 -98 -99 -100 -109 -110 -111 -116 0
-30 -33 -47 -50 -54 -55 -62 -63 -96 -97 -98 -99 -105 -106 -107 -108 -110 -111 -116 0
-30 -33 -47 -54 -55 -62 -63 -94 -96 -99 -106 -107 -109 -110 -118 -120 -121 0
-134 -135 -138 -140 -141 -144 -149 -152 -162 -164 -165 -170 -174 -175 0
-13 -21 -30 -32 -33 -39 -42 -47 -50 -51 -55 -59 -90 -98 -111 -112 -115 -116 -135 -138 -141 -144 -149 -152 -162 -165 -174 -175 0
-29 -30 -33 -40 -41 -47 -50 -52 -54 -55 -57 -59 -62 -63 -99 -110 -112 -115 -117 -118 -119 -120 -162 -165 0
-90 -98 -99 -109 -110 -111 -116 -117 -120 -122 -126 -129 -137 -139 -144 -146 -150 -151 -153 -156 -159 -162 -164 -165 -170 -172 -174 -175 0
-90 -91 -98 -99 -106 -107 -109 -111 -112 -115 -116 -117 -120 -122 -126 -128 -129 0
-30 -33 -90 -91 -103 -109 -111 -116 -117 -120 -122 -126 -128 -129 -137 0
-30 -33 -90 -91 -96 -99 -103 -109 -111 -116 -117 -120 -126 -128 -129 -137 0
-30 -33 -90 -91 -96 -99 -109 -110 -117 -118 -119 -120 -126 -128 -129 -137 0
-30 -33 -47 -50 -52 -54 -55 -57 -59 -61 -62 -63 -64 -67 -72 -98 -111 -116 0
-30 -33 -47 -50 -52 -54 -55 -57 -62 -63 -98 -99 -106 -107 -109 -110 -111 -116 -117 -120 -126 -127 0
-30 -33 -47 -50 -52 -54 -55 -57 -62 -63 -98 -99 -109 -110 -111 -116 -117 -120 -126 -129 0
-139 -142 -144 -145 -149 -152 -154 -155 -160 -161 -166 -170 -172 -173 0
-139 -141 -142 -144 -145 -149 -150 -151 -152 -153 -155 -160 -170 -173 0
-139 -141 -142 -144 -145 -149 -150 -151 -152 -153 -155 -156 -159 -160 -170 -171 0
-141 -144 -145 -149 -150 -151 -152 -153 -154 -156 -159 -162 -165 -170 -171 0
-141 -144 -145 -149 -150 -151 -152 -153 -154 -156 -159 -162 -163 -170 -171 0
-52 -54 -55 -57 -73 -76 -98 -99 -102 -109 -110 -141 -142 -143 -144 -145 -149 -150 -151 -152 -153 -154 -156 -159 -170 -171 0
-52 -54 -55 -57 -73 -76 -90 -93 -96 -98 -99 -106 -107 -109 -110 -111 -116 -117 -120 -141 -142 -144 -145 -149 -150 -151 -152 -153 -154 0
-52 -54 -55 -57 -73 -76 -90 -93 -96 -98 -99 -106 -107 -109 -110 -111 -116 -117 -120 -140 -141 -142 -144 -145 -150 -151 -153 -154 0
-140 -141 -144 -145 -150 -151 -153 -154 -156 -159 -162 -163 -170 -171 0
-140 -141 -144 -145 -150 -151 -153 -154 -156 -159 -162 -165 -170 -171 0
-46 -49 -51 -52 -54 -55 -56 -57 -67 -72 -73 -76 -90 -93 -96 -98 -99 -106 -107 -109 -110 -111 -116 -117 -120 0
-46 -49 -54 -55 -57 -67 -72 -73 -76 -78 -90 -93 -96 -98 -99 -106 -107 -109 -110 -111 -116 -117 -120 0
-46 -49 -54 -55 -57 -67 -72 -73 -76 -78 -90 -93 -96 -98 -99 -102 -106 -107 -109 -110 -111 -116 0
-46 -49 -55 -57 -90 -91 -94 -95 -96 -97 -106 -107 -109 -110 -111 -116 -140 -141 -144 -145 -150 -151 -153 -154 -155 -160 -170 -173 0
-47 -50 -51 -52 -55 -57 -90 -93 -94 -97 -106 -107 -109 -110 -111 -116 -140 -141 -144 -145 -150 -151 -153 -154 -155 -160 -170 -173 0
-47 -50 -55 -57 -90 -93 -94 -96 -97 -106 -107 -109 -110 -111 -116 -140 -141 -144 -145 -150 -151 -153 -154 -155 -160 -170 -173 0
-47 -50 -55 -57 -90 -93 -94 -96 -97 -106 -107 -109 -110 -111 -116 -141 -144 -145 -149 -150 -151 -152 -153 -154 -155 -156 -159 -160 -170 -171 0
-55 -57 -90 -93 -94 -106 -107 -109 -110 -111 -116 -133 -141 -144 -145 -149 -150 -151 -152 -153 -154 -156 -159 -170 -171 0
-46 -49 -90 -93 -141 -144 -153 -177 -178 -179 -181 0
-46 -49 -90 -93 -141 -144 -153 -177 -178 -179 -185 -188 -197 0
-46 -49 -90 -93 -141 -144 -153 -177 -178 -179 -185 -188 -193 -196 -206 -209 0
-46 -49 -90 -93 -141 -153 -177 -178 -179 -184 -185 -187 -188 -206 -209 -216 -217 0
-177 -178 -179 -226 -228 -231 -233 -237 -238 -239 -240 -241 -242 -250 -252 -253 0
-177 -178 -179 -226 -227 -228 -231 -232 -233 -237 -238 -239 -240 -241 -250 -252 -253 0
-177 -178 -179 -226 -228 -229 -231 -232 -237 -240 -241 -250 -253 0
-177 -178 -223 -225 -226 -227 -228 -229 -230 -231 -232 0
-178 -181 -183 -186 -189 -193 -196 -199 -204 -207 -210 -214 -217 0
-178 -181 -183 -184 -186 -187 -188 -189 -190 -198 -200 -203 -206 -209 -214 -215 0
-177 -183 -185 -186 -188 -189 -197 -198 -200 -203 -205 -210 -214 -215 0
-177 -184 -185 -186 -187 -188 -197 -198 -207 -210 -214 -217 0
-177 -184 -185 -186 -187 -188 -189 -197 -198 -200 -203 -207 -210 -214 -215 0
-177 -183 -184 -185 -186 -188 -189 -194 -195 -197 -200 -203 -208 -209 -214 -219 0
-134 -135 -177 -178 -182 -184 -185 -187 -188 -189 -197 -223 -225 0
-134 -137 -153 -154 -161 -164 -166 -177 -178 -181 -183 -184 -185 -186 -187 -188 -189 -223 -225 0
-142 -143 -145 -150 -151 -153 -161 -164 -166 -170 -172 -173 -177 -178 -185 -187 -188 -197 -223 -225 0
-52 -54 -55 -57 -73 -98 -99 -101 -110 -142 -143 -145 -150 -151 -153 -161 -164 -166 -170 -172 -173 -177 -185 -187 -188 -197 -223 -237 -240 -250 -253 0
-177 -178 -223 -226 -228 -229 -231 -232 -237 -240 -241 -250 -253 0
-222 -223 -226 -228 -231 -233 -237 -238 -239 -240 -241 -242 -250 -252 -253 0
-184 -186 -187 -189 -194 -195 -198 -206 -208 -209 -214 -216 -217 0
-177 -189 -194 -195 -205 -210 -223 -225 -226 -228 -231 -233 -238 -239 -241 -242 -250 -252 -253 0
-177 -179 -189 -194 -195 -205 -210 -223 -226 -228 -231 -233 -238 -239 -241 -242 -250 -252 -253 0
-177 -186 -187 -189 -194 -195 -205 -208 -210 -214 -215 -223 -226 -228 -231 -233 -238 -239 -241 -242 -250 -252 -253 0
-223 -226 -228 -229 -231 -232 -233 -238 -239 -241 -242 -250 -252 -253 0
-223 -226 -227 -228 -229 -231 -232 -233 -238 -239 -241 -250 -252 -253 0
-177 -179 -181 -183 -223 -226 -228 -229 -231 -232 -233 -238 -239 -241 0
-222 -223 -226 -229 -232 -237 -240 -241 -250 -253 -258 -261 0
-90 -93 -96 -99 -110 -118 -119 -122 -177 -223 -229 -232 -233 -237 -240 -241 -250 -253 -285 -286 -293 -294 -297 0
-52 -54 -55 -57 -73 -90 -93 -96 -99 -110 -118 -119 -122 -149 -152 -177 -184 -187 -223 -229 -232 -233 -237 -240 -241 -250 -253 -285 -286 -293 0
-52 -54 -55 -57 -73 -90 -93 -96 -99 -110 -118 -119 -122 -142 -149 -152 -153 -154 -173 -223 -229 -232 -233 -237 -240 -241 -250 -253 0
-52 -54 -55 -57 -73 -93 -96 -99 -110 -118 -119 -122 -177 -184 -187 -223 -226 -228 -229 -232 -237 -240 -241 -250 -253 -285 -286 0
-52 -54 -55 -57 -73 -96 -97 -99 -101 -110 -118 -119 -223 -226 -228 -229 -231 -232 -241 -242 -250 -253 0
-52 -54 -55 -57 -73 -96 -97 -99 -101 -110 -118 -119 -184 -185 -186 -187 -189 -223 -226 -227 -228 -229 -231 -232 -241 0
-52 -54 -55 -57 -73 -96 -97 -99 -110 -118 -119 -172 -173 -223 -226 -228 -229 -231 -232 -237 -240 -241 -250 -253 0
-52 -54 -55 -57 -73 -96 -98 -99 -110 -142 -153 -161 -166 -172 -173 -223 -226 -228 -229 -231 -232 -237 -240 -241 -250 -253 0
-52 -54 -55 -57 -73 -96 -98 -99 -110 -142 -153 -156 -159 -161 -172 -173 -174 -175 -223 -226 -228 -229 -231 -232 -237 -240 -241 -250 -253 0
-47 -50 -51 -52 -54 -55 -57 -67 -72 -73 -98 -101 -109 -110 -111 -116 -223 -226 -228 -229 -231 -232 -237 -240 -241 -250 -253 0
-47 -50 -52 -54 -55 -57 -67 -72 -73 -98 -109 -110 -111 -116 -177 -223 -226 -228 -229 -231 -232 -237 -240 -241 -250 -253 0
-47 -50 -52 -54 -55 -57 -67 -72 -73 -98 -109 -110 -111 -116 -189 -206 -209 -223 -226 -228 -229 -231 -232 -237 -240 -241 -250 -253 0
-47 -50 -52 -54 -55 -57 -67 -72 -73 -98 -109 -110 -111 -116 -198 -206 -209 -223 -226 -228 -229 -231 -232 -237 -240 -241 -250 -253 0
-52 -54 -55 -57 -96 -98 -99 -109 -110 -111 -116 -178 -179 -181 -182 -184 -185 -186 -187 -188 -198 -206 -209 -237 -240 -242 0
-52 -54 -55 -57 -96 -98 -99 -109 -110 -111 -116 -178 -179 -181 -184 -185 -187 -188 -198 -206 -209 -229 -232 -237 -240 -241 -242 0
-52 -54 -55 -57 -96 -98 -99 -109 -110 -111 -116 -178 -179 -181 -184 -185 -187 -188 -198 -206 -209 -229 -233 -241 -249 -252 -254 0
-178 -181 -183 -184 -185 -186 -187 -188 -206 -209 -214 -216 -217 0
-178 -179 -182 -184 -185 -187 -188 -194 -195 -197 -206 -208 -209 -216 -217 0
-90 -91 -134 -137 -138 -178 -179 -184 -185 -187 -188 -194 -195 -197 -206 -208 -209 -216 -217 0
-46 -47 -49 -52 -54 -55 -57 -61 -62 -63 -64 -67 -72 -178 -181 -183 -184 -185 -187 -188 -206 -209 -216 -217 0
-52 -54 -55 -57 -61 -64 -98 -101 -109 -110 -172 -173 -178 -179 -181 -182 -184 -185 -186 -187 -188 -198 -206 -209 0
-52 -54 -55 -57 -61 -64 -90 -98 -99 -110 -137 -142 -143 -153 -154 -161 -164 -166 -170 -173 -178 -179 -181 -185 -186 -187 0
-52 -54 -55 -57 -61 -64 -90 -98 -99 -110 -137 -142 -143 -153 -154 -161 -164 -166 -170 -173 -178 -179 -181 -185 -187 -206 -207 0
-52 -54 -55 -57 -61 -64 -67 -72 -91 -97 -109 -110 -118 -119 -122 -178 -179 -184 -185 -187 -188 -189 -193 -196 -206 -209 0
-52 -54 -55 -57 -61 -64 -67 -72 -91 -97 -109 -110 -118 -119 -122 -142 -143 -161 -184 -185 -187 -188 -198 -206 -209 -233 -249 -254 0
-54 -55 -57 -61 -64 -91 -97 -109 -110 -118 -119 -122 -153 -161 -164 -173 -178 -179 -184 -185 -187 -188 -193 -196 -206 -209 -228 -229 -241 -249 -254 0
-13 -22 -57 -73 -78 -109 -110 -153 -154 -198 -206 -209 -241 -242 -285 -286 0
-54 -55 -57 -61 -64 -97 -109 -110 -118 -119 -122 -172 -173 -178 -179 -184 -185 -187 -188 -197 -198 -206 -209 0
-54 -55 -57 -61 -64 -67 -72 -90 -91 -93 -106 -107 -110 -118 -119 -184 -187 -190 -198 -206 -209 -229 -232 -238 -239 -241 -242 -249 -254 0
-183 -184 -186 -187 -188 -190 -194 -195 -198 -205 -206 -209 -210 -214 -216 -217 0
-183 -184 -187 -188 -190 -198 -206 -207 -210 -214 -216 -217 0
-49 -51 -54 -56 -57 -67 -72 -73 -96 -97 -101 -106 -107 -109 -110 -118 -119 -183 -184 -187 -188 -190 -198 -206 -207 -210 -216 -217 0
-46 -49 -51 -54 -57 -67 -72 -73 -78 -93 -96 -97 -101 -109 -110 -118 -119 -182 -183 -184 -186 -187 -188 -206 -209 -216 -217 0
-46 -49 -51 -54 -57 -73 -78 -90 -93 -96 -97 -101 -109 -110 -118 -119 -134 -137 -178 -179 -184 -187 -188 -206 -209 -216 -217 -229 -232 -241 -249 0
-51 -96 -97 -101 -109 -110 -118 -119 -142 -143 -153 -161 -164 -170 -172 -173 -178 -206 -209 -223 -226 -227 -228 -229 -230 -231 -232 -238 -239 -241 0
-51 -54 -57 -73 -78 -96 -97 -101 -109 -110 -118 -119 -142 -143 -153 -161 -172 -173 -178 -179 -206 -209 -226 -227 -228 -229 -231 -232 -241 0
-177 -178 -179 -226 -228 -229 -231 -232 -241 -260 -261 0
-46 -49 -54 -55 -57 -62 -63 -67 -72 -73 -76 -78 -177 -178 -179 -225 -226 -286 -293 -294 -296 -297 -298 0
-46 -49 -52 -54 -55 -57 -73 -76 -90 -93 -96 -99 -106 -107 -110 -118 -119 -147 -153 -161 -164 -166 -172 -173 -177 -179 -226 -286 -293 -294 -297 0
-46 -49 -57 -61 -62 -63 -64 -67 -72 -74 -75 -78 -90 -93 -96 -99 -106 -107 -110 -118 -119 -184 -187 -198 -206 -207 -286 -293 -294 -297 0
-52 -54 -55 -57 -61 -62 -63 -64 -67 -72 -93 -96 -99 -110 -118 -119 -153 -161 -164 -172 -173 -177 -179 -285 -286 -293 -294 -297 0
-46 -49 -52 -54 -55 -57 -61 -62 -63 -64 -67 -72 -90 -93 -96 -99 -110 -118 -119 -142 -143 -153 -161 -164 -172 -173 -177 -179 -237 -240 -285 -286 -293 0
-30 -33 -54 -55 -62 -63 -106 -107 -118 -119 -142 -143 -173 -177 0
-30 -33 -54 -55 -62 -63 -106 -107 -118 -119 -142 -143 -153 -161 -164 -166 -170 -172 -173 -186 -187 -194 -195 -198 -205 -208 -214 -215 -218 0
-30 -33 -54 -55 -62 -63 -106 -107 -118 -119 -142 -143 -153 -161 -164 -166 -170 -172 -173 -186 -187 -189 -194 -195 -205 -208 -214 -215 0
-30 -33 -54 -55 -62 -63 -106 -107 -118 -119 -142 -143 -153 -161 -164 -166 -170 -172 -173 -186 -187 -189 -190 -198 -200 -203 -214 -215 0
-30 -33 -54 -55 -57 -62 -63 -101 -106 -107 -118 -119 -142 -143 -153 -172 -173 -186 -187 -189 -222 -223 -225 -230 0
-30 -33 -54 -55 -62 -63 -106 -107 -118 -119 -142 -143 -153 -161 -164 -166 -172 -173 -184 -185 -186 -187 -188 -189 -209 0
-30 -33 -54 -55 -62 -63 -106 -107 -118 -119 -141 -142 -143 -153 -154 -161 -164 -166 -170 -173 -209 0
-30 -33 -54 -55 -62 -63 -106 -107 -118 -119 -141 -142 -143 -153 -156 -159 -161 -164 -170 -172 -173 -174 -175 -209 0
-30 -33 -54 -55 -57 -62 -63 -106 -107 -118 -119 -142 -143 -171 -173 -174 -185 -206 -209 -238 -239 -241 0
-30 -33 -54 -55 -62 -63 -95 -98 -106 -107 -142 -143 -173 -186 -187 -209 -230 -231 -238 -239 -294 -297 0
-178 -179 -182 -184 -185 -188 -193 -196 -206 -208 -209 -214 -218 -219 0
-13 -22 -57 -73 -78 -109 -110 -153 -154 -189 -198 -233 -249 -254 -285 -286 0
-13 -22 -57 -73 -78 -109 -110 -153 -154 -197 -198 -233 -249 -254 -285 -286 0
-13 -22 -57 -73 -78 -109 -110 -153 -154 -198 -206 -209 -233 -249 -254 -285 -286 0
-52 -54 -55 -57 -96 -98 -99 -109 -110 -111 -116 -178 -179 -182 -184 -185 -186 -187 -188 -193 -196 -206 -209 -237 -240 -249 -254 0
-49 -52 -54 -55 -57 -90 -93 -96 -98 -99 -106 -107 -109 -110 -111 -116 -178 -179 -184 -185 -187 -188 -197 -198 -206 -209 -233 -237 -240 -249 -254 0
-52 -54 -55 -57 -90 -93 -96 -98 -99 -106 -107 -109 -110 -111 -116 -142 -143 -145 -150 -151 -161 -164 -166 -178 -179 -184 -185 -186 -187 -188 -198 -206 -209 -241 -242 -249 -254 0
-52 -54 -55 -57 -96 -98 -99 -106 -107 -109 -110 -142 -143 -145 -150 -151 -153 -161 -164 -166 -170 -173 -178 -179 -184 -185 -187 -188 -198 -206 -209 -241 -242 -249 -254 0
-46 -49 -52 -54 -55 -57 -61 -64 -90 -93 -98 -99 -109 -110 -172 -173 -178 -179 -184 -185 -187 -188 -197 -198 -206 -209 0
-13 -22 -57 -73 -78 -109 -110 -153 -154 -189 -198 -237 -240 -249 -254 -260 -261 -285 -286 0
-52 -54 -55 -57 -93 -96 -98 -99 -106 -107 -109 -110 -142 -143 -145 -150 -151 -153 -161 -164 -166 -170 -172 -173 -222 -225 -231 -238 -239 -241 -249 -254 -260 -261 0
-52 -54 -55 -57 -61 -64 -96 -98 -99 -109 -110 -142 -143 -161 -172 -173 -179 -185 -188 -226 -228 -229 -231 -233 -238 -239 -241 -249 -252 -254 0
-46 -49 -52 -54 -55 -57 -61 -64 -90 -93 -98 -109 -110 -153 -172 -173 -178 -179 -185 -187 -188 -189 -193 -196 -206 -209 0
-46 -49 -52 -54 -55 -57 -61 -64 -90 -93 -110 -153 -161 -164 -166 -172 -173 -178 -179 -184 -185 -187 -188 -193 -196 -206 -209 0
-22 -30 -33 -54 -55 -57 -61 -62 -63 -64 -98 -99 -106 -107 -110 -142 -173 -185 -188 -198 -206 -209 -286 -294 -297 0
-30 -33 -54 -55 -57 -61 -62 -63 -64 -75 -78 -96 -98 -99 -101 -106 -107 -110 -142 -143 -173 -206 -209 0
-30 -33 -52 -54 -55 -57 -61 -62 -63 -64 -96 -98 -99 -101 -106 -107 -110 -142 -143 -173 -206 -209 0
-30 -33 -54 -55 -62 -63 -65 -66 -67 -72 -73 -76 -78 -96 -98 -99 -109 -110 -142 -143 -206 -207 -230 0
-13 -22 -57 -73 -78 -109 -110 -153 -154 -198 -206 -207 -241 -242 -285 -286 0
-52 -54 -55 -57 -73 -76 -98 -101 -109 -110 -172 -173 -182 -184 -185 -188 -189 -197 -199 -204 -206 -207 -210 -214 -215 -218 0
-21 -22 -30 -33 -54 -55 -57 -73 -98 -99 -101 -110 -142 -143 -153 -154 -198 -206 -207 -285 -286 -294 -297 0
-21 -22 -30 -33 -54 -55 -57 -98 -99 -101 -142 -143 -153 -172 -173 -178 -179 -206 -207 -225 -226 -227 -228 -229 -230 0
-21 -22 -30 -33 -54 -55 -57 -98 -99 -109 -110 -142 -143 -153 -172 -173 -178 -179 -206 -207 -225 -226 -227 -229 -241 -249 0
-21 -22 -30 -33 -54 -55 -57 -73 -98 -99 -109 -110 -142 -143 -153 -154 -173 -178 -179 -206 -207 -226 -227 -229 -241 0
-21 -22 -30 -33 -54 -55 -57 -73 -98 -99 -109 -110 -142 -143 -153 -154 -178 -179 -198 -206 -207 -226 -285 -286 0
-30 -33 -54 -55 -62 -63 -98 -99 -106 -107 -142 -143 -173 -177 0
-30 -33 -54 -55 -62 -63 -98 -99 -106 -107 -142 -143 -153 -161 -164 -166 -170 -172 -173 -186 -188 -189 -198 -200 -203 -207 -210 -214 -215 0
-13 -30 -33 -54 -55 -57 -62 -63 -98 -99 -106 -107 -109 -110 -142 -143 -153 -154 -173 -222 -225 -238 -239 -241 -242 0
-13 -30 -33 -54 -55 -57 -62 -63 -98 -99 -106 -107 -109 -110 -142 -143 -153 -154 -173 -229 -232 -238 -239 -241 -242 -249 -254 0
-30 -33 -52 -54 -55 -57 -62 -63 -96 -98 -99 -106 -107 -109 -110 -142 -143 -153 -154 -173 -185 -206 -207 0
-13 -30 -33 -52 -54 -55 -57 -62 -63 -96 -98 -99 -106 -107 -109 -110 -141 -142 -143 -153 -154 -173 0
-185 -186 -187 -188 -194 -195 -197 -199 -204 -205 -210 -214 -216 -217 0
-178 -181 -183 -185 -186 -188 -197 -199 -204 -205 -210 -214 -216 -217 0
-183 -185 -186 -188 -189 -197 -198 -199 -204 -205 -210 -214 -217 0
-178 -179 -183 -184 -185 -186 -188 -189 -197 -199 -204 -214 -217 0
-62 -63 -66 -73 -74 -75 -78 -90 -91 -93 -94 -96 -99 -106 -107 -110 -118 -119 -183 -184 -185 -186 -189 -197 -222 -225 -233 -249 -252 -254 0
-51 -52 -54 -55 -56 -57 -73 -76 -90 -93 -96 -99 -106 -107 -110 -118 -119 -140 -142 -143 -153 -154 -183 -184 -185 -186 -189 -225 -230 -231 -233 -249 -252 -254 0
-52 -54 -55 -57 -73 -76 -90 -93 -96 -99 -106 -107 -110 -118 -119 -140 -142 -143 -153 -154 -178 -181 -183 -184 -185 -186 -187 -216 -217 -225 -233 -249 -252 -254 0
-52 -54 -55 -57 -73 -76 -90 -93 -96 -99 -106 -107 -110 -118 -119 -137 -140 -142 -143 -154 -178 -181 -183 -184 -185 -187 -188 -216 -217 -225 -233 -249 -254 0
-52 -54 -55 -57 -73 -90 -93 -96 -99 -110 -118 -119 -140 -143 -154 -178 -181 -183 -184 -185 -187 -188 -216 -217 -229 -233 -238 -239 -241 -249 -252 -254 0
-52 -54 -55 -57 -73 -90 -93 -96 -99 -110 -118 -119 -134 -137 -140 -142 -143 -153 -154 -178 -181 -184 -187 -188 -216 -217 -229 -241 -242 -249 -254 0
-52 -54 -55 -57 -73 -90 -93 -96 -99 -110 -118 -119 -134 -137 -140 -142 -143 -153 -154 -178 -181 -183 -184 -185 -187 -241 -249 -254 -260 -261 0
-29 -30 -33 -40 -41 -52 -54 -55 -57 -62 -63 -73 -76 -96 -99 -106 -107 -110 -118 -119 -154 -178 -181 -183 -184 -185 -187 -188 -189 0
-21 -29 -30 -32 -33 -40 -41 -54 -55 -57 -73 -76 -106 -107 -110 -118 -119 -142 -143 -153 -154 -285 -286 -294 -297 0
-21 -29 -30 -32 -33 -40 -41 -54 -55 -57 -62 -63 -73 -76 -106 -107 -110 -118 -119 -142 -154 0
-29 -46 -49 -52 -54 -55 -57 -67 -72 -73 -76 -90 -91 -93 -96 -99 -110 -118 -119 -140 -143 -181 -184 -187 -197 -198 -225 -241 -249 -254 0
-22 -29 -46 -49 -52 -54 -55 -57 -67 -72 -73 -76 -90 -91 -93 -96 -99 -110 -118 -119 -181 -184 -187 -197 -198 -229 -241 -249 -254 0
-22 -29 -46 -49 -52 -54 -55 -57 -67 -72 -73 -76 -90 -91 -93 -96 -99 -110 -118 -119 -193 -196 -198 -229 -241 -249 -254 0
-22 -29 -46 -49 -52 -54 -55 -57 -67 -72 -73 -76 -90 -91 -93 -96 -99 -110 -118 -119 -181 -184 -187 -189 -198 -229 -241 -249 -254 0
-10 -11 -22 -29 -49 -52 -54 -55 -57 -67 -72 -73 -76 -90 -91 -93 -96 -99 -110 -118 -119 0
-49 -51 -52 -54 -55 -56 -57 -62 -63 -67 -72 -73 -76 -101 -106 -107 -109 -110 -178 -181 -183 -184 -186 -187 -188 -190 -198 -199 -204 -215 -218 -241 0
-13 -22 -57 -73 -78 -109 -110 -153 -154 -189 -198 -241 -242 -285 -286 0
-178 -181 -183 -184 -185 -186 -187 -188 -189 -199 -204 -214 -217 0
-178 -181 -183 -184 -186 -187 -188 -193 -196 -199 -204 -214 -216 -217 0
-13 -22 -57 -73 -78 -109 -110 -153 -154 -193 -196 -198 -233 -242 -285 -286 0
-10 -11 -22 -46 -49 -54 -55 -57 -73 -78 -90 -93 -98 -99 -106 -107 -109 -110 -111 -116 -142 -143 -153 -154 -178 -181 -183 -186 -188 -216 -217 -230 -238 -239 -241 -242 0
-49 -52 -54 -55 -57 -90 -91 -93 -96 -98 -99 -109 -110 -111 -116 -141 -142 -143 -153 -154 -161 -166 -178 -181 -225 -228 -230 -231 -238 -239 -241 -242 0
-22 -49 -54 -55 -57 -73 -90 -93 -96 -98 -99 -106 -107 -109 -110 -111 -116 -141 -153 -154 -178 -181 -183 -188 -198 -229 -232 -241 -242 -249 -254 0
-22 -49 -57 -73 -90 -93 -98 -99 -106 -107 -109 -110 -111 -116 -141 -153 -154 -178 -181 -183 -188 -198 -229 -232 -241 -249 -254 -260 -261 0
-49 -52 -54 -55 -57 -90 -91 -93 -96 -98 -99 -109 -110 -111 -116 -141 -142 -143 -153 -154 -161 -166 -178 -179 -181 -223 -229 -241 0
-10 -11 -22 -29 -54 -55 -57 -90 -93 -96 -98 -99 -106 -107 -109 -110 -111 -116 -141 -142 -143 -153 -154 -161 -166 0
-10 -11 -22 -54 -55 -57 -90 -93 -96 -98 -99 -106 -107 -109 -110 -111 -116 -141 -142 -143 -153 -154 -156 -159 -174 -175 0
-22 -29 -46 -49 -51 -52 -54 -55 -56 -57 -61 -64 -67 -72 -90 -93 -96 -98 -99 -106 -107 -109 -110 -111 -116 -149 -152 -179 -181 -228 -229 -231 -232 -241 0
-10 -11 -52 -54 -55 -57 -90 -93 -96 -98 -99 -106 -107 -109 -110 -111 -116 -141 -142 -143 -149 -152 -153 -154 -156 -159 0
-10 -11 -52 -54 -55 -57 -90 -93 -96 -98 -99 -106 -107 -109 -110 -111 -116 -140 -141 -142 -143 -153 -154 -156 -159 0
-10 -11 -13 -29 -54 -55 -57 -90 -93 -96 -98 -99 -106 -107 -109 -110 -111 -116 -141 -142 -143 -153 -154 -161 0
-10 -11 -52 -54 -55 -57 -90 -93 -96 -98 -99 -106 -107 -109 -110 -111 -116 -140 -141 -142 -143 -153 -154 -165 0
-10 -11 -52 -54 -55 -57 -90 -93 -96 -98 -99 -109 -110 -140 -141 -142 -143 -153 -154 -178 -179 -181 0
-10 -11 -22 -29 -54 -55 -57 -90 -93 -96 -98 -99 -106 -107 -109 -110 -111 -116 -140 -141 -142 -143 -153 -154 0
-46 -49 -52 -54 -55 -56 -57 -90 -93 -98 -99 -106 -107 -109 -110 -111 -116 -133 -141 -153 -179 -185 -188 -197 -229 -232 -241 0
-10 -11 -49 -54 -55 -90 -93 -96 -98 -99 -106 -107 -109 -110 -111 -116 -133 -135 -141 -153 0
-183 -186 -188 -189 -190 -198 -199 -204 -205 -210 -214 -216 -217 0
-141 -144 -150 -151 -153 -154 -161 -162 -163 -164 -166 -170 -171 0
-134 -135 -141 -144 -149 -150 -151 -152 -153 -154 -161 -162 -163 -164 -170 -171 0
-52 -54 -55 -56 -57 -90 -93 -98 -99 -106 -107 -109 -110 -111 -116 -141 -144 -149 -150 -151 -152 -153 -154 -162 -163 -171 -185 -188 -189 -190 -191 -205 -210 -217 0
-52 -54 -55 -57 -90 -93 -96 -98 -99 -109 -110 -111 -116 -141 -144 -149 -152 -153 -154 -162 -163 -171 -179 -184 -185 -188 -189 -190 -217 0
-49 -52 -54 -55 -57 -90 -93 -96 -98 -99 -109 -110 -111 -116 -141 -144 -149 -152 -153 -154 -162 -163 -171 -179 -184 -185 -190 -216 -217 0
-52 -54 -55 -57 -90 -93 -96 -98 -99 -109 -110 -111 -116 -141 -149 -152 -153 -154 -162 -163 -179 -184 -185 -187 -188 -197 -198 0
-49 -54 -55 -57 -73 -90 -93 -96 -98 -99 -106 -107 -109 -110 -111 -116 -141 -144 -149 -150 -151 -152 -153 -154 -162 -163 -179 -184 -185 -198 -228 -231 -241 -242 0
-49 -51 -52 -54 -55 -56 -57 -67 -72 -73 -90 -93 -96 -98 -99 -109 -110 -111 -116 -141 -144 -149 -152 -153 -154 -162 -163 -179 -184 -185 -249 0
-49 -51 -52 -54 -55 -56 -57 -67 -72 -73 -90 -93 -96 -98 -99 -109 -110 -111 -116 -141 -144 -149 -152 -153 -154 -162 -163 -183 -184 -185 -188 -249 0
-46 -49 -54 -55 -57 -67 -72 -73 -78 -90 -93 -96 -98 -99 -109 -110 -111 -116 -141 -144 -149 -152 -153 -154 -162 -163 0
-13 -22 -57 -73 -78 -109 -110 -153 -154 -198 -206 -207 -233 -249 -254 -285 -286 0
-52 -54 -55 -57 -67 -72 -73 -76 -91 -94 -95 -96 -97 -101 -103 -106 -107 -109 -110 -111 -116 -154 -161 -179 -183 -184 -185 -187 -233 -249 -254 0
-52 -54 -55 -57 -67 -72 -73 -91 -94 -95 -96 -97 -101 -103 -106 -107 -109 -110 -111 -116 -154 -155 -160 -161 -166 -171 -174 -183 -184 -185 -187 -188 -198 0
-52 -54 -55 -57 -73 -76 -91 -94 -95 -96 -97 -101 -103 -106 -107 -109 -110 -111 -116 -145 -149 -152 -171 -174 -179 -184 -185 -188 -197 -241 -242 -249 0
-52 -54 -55 -57 -67 -72 -91 -94 -95 -96 -97 -101 -103 -106 -107 -109 -110 -111 -116 -134 -135 -140 -141 -144 -149 -152 -154 -155 -160 -175 -183 -184 -185 -187 -198 0
-52 -54 -55 -57 -91 -94 -95 -96 -97 -101 -103 -106 -107 -109 -110 -111 -116 -149 -152 -154 -178 -179 -184 -185 -187 -188 -197 -198 0
-30 -33 -40 -41 -54 -55 -57 -91 -97 -101 -103 -106 -107 -109 -110 -111 -116 -154 -162 -165 0
-46 -49 -51 -52 -54 -55 -56 -57 -62 -63 -67 -72 -73 -76 -93 -96 -97 -98 -99 -101 -106 -107 -109 -110 -111 -116 -149 -152 -154 -162 -165 0
-46 -49 -52 -54 -55 -57 -61 -62 -63 -64 -67 -72 -75 -78 -93 -96 -97 -98 -99 -101 -106 -107 -109 -110 -111 -116 -149 -152 -154 -162 -165 0
-46 -49 -54 -55 -57 -61 -62 -63 -64 -67 -72 -73 -78 -93 -96 -97 -98 -99 -101 -106 -107 -109 -110 -111 -116 -149 -152 -154 -162 -165 0
-46 -49 -54 -55 -57 -62 -63 -67 -72 -73 -76 -78 -93 -96 -97 -98 -99 -101 -106 -107 -109 -110 -111 -116 -149 -152 -154 -162 -165 0
-52 -54 -55 -57 -91 -94 -95 -96 -97 -98 -101 -106 -107 -109 -110 -111 -116 -141 -145 -149 -150 -151 -152 -153 -154 -155 -160 -161 -164 -170 -171 0
-52 -54 -55 -57 -67 -72 -91 -94 -95 -96 -97 -98 -101 -106 -107 -109 -110 -111 -116 -141 -145 -149 -150 -151 -152 -153 -154 -155 -160 -171 0
-47 -50 -51 -52 -54 -55 -57 -97 -98 -101 -109 -189 -222 -223 -226 -228 -229 -231 -232 -241 -242 0
-47 -50 -51 -52 -54 -55 -97 -98 -99 -101 -110 -178 -223 -226 -228 -229 -231 -232 -241 -242 0
-47 -50 -51 -52 -54 -55 -97 -98 -99 -101 -110 -178 -223 -226 -228 -229 -231 -232 -233 -241 0
-47 -50 -51 -52 -54 -55 -97 -98 -99 -101 -110 -178 -223 -226 -228 -229 -231 -232 -241 -260 -261 0
-47 -50 -51 -52 -54 -55 -97 -98 -99 -101 -110 -178 -179 -182 -185 -188 -197 -226 -228 -229 -231 -232 -241 0
-47 -50 -51 -52 -54 -55 -97 -98 -99 -101 -110 -178 -179 -226 -227 -228 -229 -231 -232 -241 0
-47 -49 -50 -51 -52 -54 -55 -97 -98 -99 -101 -109 -110 -141 -153 -178 -179 -184 -185 -187 -188 -197 -226 -228 -229 -231 -232 -241 0
-47 -50 -51 -52 -54 -55 -57 -62 -63 -67 -72 -73 -96 -97 -98 -101 -106 -107 -109 -110 -111 -116 -153 -155 -160 -161 -166 -184 -185 -187 -188 -189 -228 -229 -231 -232 -241 0
-47 -50 -51 -96 -97 -138 -141 -144 -150 -151 -153 -154 -155 -160 -161 -164 -166 -170 -171 0
-46 -47 -49 -50 -52 -54 -55 -57 -62 -63 -67 -72 -73 -76 -96 -97 -98 -101 -106 -107 -109 -110 -111 -116 -149 -152 -154 -155 -160 0
-47 -49 -50 -51 -52 -54 -55 -57 -67 -72 -96 -97 -98 -101 -106 -107 -109 -110 -111 -116 -178 -179 -184 -185 -186 -187 -188 -189 -193 -196 -206 -209 0
-46 -47 -49 -50 -51 -52 -54 -55 -57 -97 -98 -101 -109 -145 -150 -151 -153 -161 -164 -166 -172 -173 -178 -179 -185 -187 -188 -193 -196 -206 -209 0
-46 -47 -49 -50 -51 -52 -54 -55 -57 -97 -98 -101 -109 -145 -150 -151 -153 -154 -172 -173 -178 -179 -185 -187 -188 -193 -196 -206 -209 0
-47 -49 -50 -51 -52 -54 -55 -57 -97 -98 -101 -106 -107 -109 -110 -111 -116 -137 -154 -178 -179 -184 -185 -187 -188 -193 -196 -198 -206 -209 0
-30 -33 -47 -50 -54 -55 -57 -62 -63 -67 -72 -73 -96 -97 -98 -99 -106 -107 -109 -110 -111 -116 0
-30 -33 -54 -55 -57 -62 -63 -67 -72 -73 -76 -78 -96 -98 -99 -109 -110 -147 -186 -187 -230 0
-47 -50 -52 -55 -57 -59 -62 -63 -65 -67 -72 -73 -76 -78 -91 -93 -94 -98 -100 -101 -106 -107 -109 -110 -111 -116 -189 -198 -205 -206 -209 -210 -215 -218 -219 -229 -232 -237 -240 0
-47 -49 -50 -52 -53 -54 -55 -56 -57 -67 -72 -90 -91 -93 -94 -101 -110 -111 -116 -189 -206 -208 -209 -215 -218 -229 -232 -237 -240 0
-96 -99 -101 -110 -189 -194 -195 -205 -206 -208 -209 -210 -214 -215 -218 -219 -222 -223 -225 -226 -227 -228 -229 -230 -231 -232 0
-51 -54 -56 -58 -65 -67 -68 -71 -72 -86 -87 -96 -98 -99 -101 -106 -107 -110 -111 -116 -186 -194 -195 -198 -205 -206 -208 -209 -210 -214 -215 -218 -226 -228 -229 -231 -232 -237 -240 -293 -294 -297 -298 0
-51 -52 -54 -55 -56 -57 -62 -63 -67 -72 -73 -96 -98 -99 -101 -106 -107 -110 -111 -116 -189 -205 -206 -209 -210 -226 -229 -232 -237 -240 -241 -293 -294 -297 -298 0
-23 -28 -30 -31 -54 -55 -57 -62 -63 -67 -72 -73 -78 -96 -98 -99 -101 -106 -107 -110 -111 -116 -186 -187 -189 -205 -206 -209 -210 -229 -232 -241 -286 -294 -297 0
-30 -31 -47 -50 -52 -55 -57 -59 -62 -63 -65 -67 -72 -73 -76 -90 -93 -96 -99 -103 -106 -107 -109 -110 -116 -184 -186 -187 -189 -207 -210 -241 0
-30 -31 -46 -47 -49 -50 -52 -54 -55 -57 -59 -62 -63 -67 -72 -73 -76 -103 -111 -116 0
-30 -31 -47 -49 -50 -51 -52 -54 -55 -56 -57 -62 -63 -67 -72 -73 -76 -101 -103 -106 -107 -109 -110 -111 -116 0
-30 -31 -47 -50 -52 -54 -55 -57 -61 -62 -63 -64 -67 -72 -90 -93 -96 -99 -103 -106 -107 -109 -110 -111 -116 0
-30 -31 -46 -47 -49 -50 -52 -54 -55 -57 -62 -63 -67 -72 -73 -76 -103 -110 -111 -116 0
-30 -31 -46 -47 -49 -50 -52 -54 -55 -57 -62 -63 -67 -72 -73 -76 -98 -110 -111 -116 0
-177 -178 -179 -274 -275 -277 -287 -292 -293 -296 -298 -302 -305 0
-30 -33 -54 -55 -62 -63 -98 -99 -106 -107 -133 0
-30 -33 -52 -54 -55 -57 -62 -63 -73 -76 -96 -98 -99 -106 -107 -109 -110 -117 -120 -177 -178 -179 -285 -286 -293 -296 -298 0
-29 -30 -33 -40 -41 -52 -54 -55 -57 -62 -63 -73 -76 -98 -99 -105 -106 -107 -108 -109 -110 -177 -178 -179 -285 -286 -293 -298 0
-30 -33 -47 -50 -52 -53 -54 -55 -56 -57 -59 -62 -63 0
-47 -50 -51 -52 -53 -138 -145 -146 -150 -151 -153 -154 -155 -160 -170 -172 -173 0
-177 -223 -225 -274 -275 -282 -283 -286 -287 -292 -293 -296 -298 -302 -303 -306 0
-177 -178 -179 -274 -275 -282 -283 -285 -286 -287 -292 -293 -296 -298 -302 -303 0
-46 -49 -52 -54 -55 -57 -62 -63 -67 -72 -73 -76 -153 -155 -160 -161 -164 -166 -172 -173 -177 -178 -179 -285 -286 -287 -292 -293 -296 -298 0
-46 -49 -54 -55 -57 -62 -63 -73 -76 -78 -90 -91 -96 -98 -99 -102 -106 -107 -109 -110 -141 -144 -153 -161 -166 -172 -173 -177 -178 -179 -285 -286 -293 -296 -298 0
-46 -49 -54 -55 -57 -62 -63 -73 -76 -78 -90 -91 -96 -98 -99 -102 -110 -141 -144 -153 -161 -166 -172 -173 -177 -178 -179 -225 -226 -277 -282 -283 -285 -286 -293 -296 0
-177 -178 -179 -225 -226 -277 -285 -286 -294 -296 -297 -302 -303 -305 -306 0
-177 -178 -179 -225 -226 -277 -285 -286 -287 -292 -293 -296 -302 -303 -305 -306 0
-46 -49 -52 -54 -55 -57 -73 -76 -90 -93 -96 -98 -99 -102 -109 -110 -153 -161 -164 -166 -172 -173 -177 -178 -179 -225 -226 -277 -285 -286 -293 -296 -303 -306 0
-46 -49 -52 -54 -55 -57 -73 -76 -90 -93 -96 -98 -99 -102 -109 -110 -153 -161 -164 -166 -172 -173 -177 -178 -179 -225 -226 -271 -276 -277 -285 -293 -296 0
-29 -32 -40 -41 -46 -49 -57 -73 -76 -90 -93 -96 -99 -109 -110 -153 -161 -164 -166 -172 -173 -177 -178 -179 -225 -226 -228 -229 -277 -286 -302 -305 0
-29 -32 -40 -41 -46 -49 -52 -54 -55 -57 -73 -76 -90 -93 -96 -98 -99 -109 -110 -153 -161 -164 -166 -170 -172 -173 -177 -178 -179 -226 -229 -232 -241 -285 -286 -293 0
-29 -32 -40 -41 -52 -55 -57 -73 -76 -90 -93 -96 -99 -102 -106 -107 -109 -110 -145 -150 -151 -153 -161 -164 -166 -172 -173 -177 -178 -179 -229 -232 -241 -285 -286 0
-52 -54 -55 -57 -73 -76 -90 -93 -96 -98 -99 -102 -106 -107 -109 -110 -177 -178 -179 -226 -229 -232 -241 -277 -282 -283 -285 -287 -292 -296 -297 -303 -306 0
-177 -178 -179 -226 -228 -229 -231 -232 -233 -241 0
-177 -178 -179 -226 -228 -229 -231 -232 -241 -242 0
-177 -178 -179 -226 -229 -232 -241 -276 -277 -285 -294 -296 -297 -302 -305 0
-52 -54 -55 -57 -73 -76 -90 -93 -96 -98 -99 -102 -106 -107 -109 -110 -177 -178 -179 -226 -229 -232 -241 -276 -277 -285 -294 -296 -297 0
-46 -49 -54 -55 -57 -62 -63 -73 -76 -78 -93 -96 -98 -99 -102 -110 -161 -164 -166 -172 -173 -177 -178 -179 -198 -226 -228 -229 -232 -241 -277 -278 -282 -283 -285 -288 -291 -296 -297 -302 -303 0
-52 -54 -55 -57 -73 -76 -90 -93 -96 -98 -99 -102 -106 -107 -109 -110 -177 -178 -179 -277 -285 -293 -294 -296 -297 -298 0
-29 -30 -32 -33 -40 -41 -54 -55 -57 -62 -63 -73 -76 -98 -99 -106 -107 -110 -173 -177 -178 -179 -226 -229 -232 -241 -273 -294 -297 0
-29 -30 -32 -33 -40 -41 -54 -55 -57 -62 -63 -73 -76 -98 -106 -107 -110 -173 -177 -178 -179 -226 -229 -232 -241 -294 -295 -296 -297 -298 0
-29 -30 -32 -33 -40 -41 -57 -61 -62 -63 -64 -74 -75 -78 -98 -99 -102 -106 -107 -109 -110 -178 -179 -185 -186 -188 -189 -226 -229 -232 -296 -297 -317 0
-29 -30 -32 -33 -40 -41 -54 -55 -57 -61 -62 -63 -64 -98 -99 -106 -107 -110 -177 -178 -179 -185 -188 -226 -277 -296 -297 -321 -325 -328 0
-29 -30 -32 -33 -40 -41 -54 -55 -57 -61 -62 -63 -64 -98 -99 -106 -107 -110 -177 -178 -179 -185 -189 -226 -321 -330 0
-13 -29 -32 -57 -61 -64 -101 -102 -110 -153 -154 -161 -164 -185 -188 -189 -281 -284 -304 -305 -321 -337 -340 0
-13 -29 -32 -57 -61 -64 -102 -109 -110 -153 -154 -161 -164 -185 -188 -189 -277 -281 -284 -321 -337 -340 0
-29 -30 -32 -33 -40 -41 -54 -55 -57 -61 -62 -63 -64 -98 -99 -106 -107 -110 -173 -177 -178 -179 -226 -241 -271 -277 -281 -284 -364 0
-13 -57 -109 -153 -189 -241 -285 -321 -365 0
-13 -57 -109 -153 -189 -241 -277 -321 -367 -372 0
-13 -57 -109 -153 -189 -241 -285 -321 -373 0
-13 -57 -109 -153 -189 -241 -277 -321 -382 -383 0
-13 -57 -109 -153 -189 -241 -277 -321 -382 -385 0
-13 -57 -109 -153 -189 -241 -277 -321 -391 -394 0
-404 -406 -407 -410 -415 -418 -425 -430 -436 -437 0
-404 -406 -407 -410 -415 -417 -425 -430 -435 -438 0
-404 -406 -407 -410 -415 -417 -420 -423 -425 -430 0
-399 -400 -401 -402 -403 -404 -406 -407 -408 -410 -415 -417 -418 -419 -424 0
-397 -399 -400 -403 -404 -405 -407 0
-442 -445 -448 -449 -452 -457 -460 -462 -469 -472 -474 -480 -481 0
-442 -445 -447 -448 -449 -452 -454 -457 -460 -462 -469 -470 -471 -472 -474 -477 -480 0
-448 -450 -451 -454 -459 -461 -469 -474 -479 -482 0
-448 -450 -451 -453 -454 -459 -461 -469 -470 -471 -474 0
-441 -446 -448 -451 -453 -454 -459 -462 -469 -472 -474 0
-397 -399 -400 -401 -404 -407 0
-488 -489 -492 -494 -495 -497 -503 -505 -507 -512 -514 -517 -524 -525 0
-488 -489 -491 -492 -494 -495 -496 -498 -501 -503 -504 -505 -506 -507 -512 -515 -518 -521 -524 0
-400 -401 -406 -407 -410 -415 -425 -436 -437 -442 -443 -453 -454 -459 -469 -470 -473 -474 -479 -482 -494 -495 -497 -498 -503 -505 0
-441 -490 -492 -494 -495 -497 -503 -506 -513 -518 -523 -526 0
-441 -490 -492 -494 -495 -503 -505 -506 -513 -514 -515 -518 0
-441 -442 -443 -489 -490 -492 -494 -495 -497 -503 -505 -506 0
-530 -532 -533 -535 -538 -540 -542 -547 -550 -551 -556 -558 -561 -568 -569 0
-492 -494 -495 -498 -503 -505 -513 -518 -523 -526 0
-536 -538 -539 -542 -547 -549 -557 -562 -567 -570 0
-536 -538 -539 -542 -547 -549 -550 -557 -562 0
-531 -532 -533 -534 -535 -536 -538 -539 -540 -541 -542 -547 -550 -551 -556 -558 -561 0
-441 -576 -577 -582 -583 -585 -591 -593 -595 -600 -602 -603 -606 -612 -613 0
-441 -576 -577 -579 -582 -584 -586 -589 -591 -592 -593 -594 -595 -600 -602 -603 -606 -609 -612 0
-441 -442 -443 -534 -535 -536 -537 -538 -539 0
-441 -442 -443 -534 -535 -585 -591 -593 -601 -604 -606 -611 -614 0
-441 -443 -535 -586 -589 -591 -592 -593 -594 -601 -604 -606 0
-441 -442 -443 -534 -535 -626 -627 -629 -637 -646 -649 0
-409 -417 -420 -423 -425 -426 -429 -435 -436 -437 -438 -441 -442 -443 -534 0
-404 -407 -409 -410 -415 -425 -436 -437 -441 -442 -443 -534 0
-620 -621 -624 -626 -627 -629 -635 -637 -639 -644 -646 -647 -656 -657 0
-404 -406 -407 -410 -415 -425 -436 -437 -441 -442 -445 -448 -449 -454 -457 -460 -462 -494 -495 -538 -542 -558 -561 -580 -582 -583 -586 -591 -593 -602 -603 0
-404 -407 -436 -437 -441 -442 -443 -445 -534 -535 0
-624 -626 -627 -630 -635 -637 -645 -650 -655 -658 0
-441 -531 -623 -626 -630 -635 -637 -645 -646 -647 -650 0
-441 -531 -532 -578 -623 -624 -626 -627 -628 -630 -635 -637 -638 -639 -644 0
-415 -418 -426 -429 -436 -437 -441 -442 -445 -449 -462 -469 -492 -495 -503 -582 -586 -591 -593 -602 -603 -613 -623 -624 -625 -627 0
